c File: flat100_3_0.col
c
c SOURCE: Joseph Culberson (joe@cs.ualberta.ca)
c DESCRIPTION: Quasi-random coloring problem
c              generated with flatness = 0
c                             probability = 0.072
c                             known coloring = 3
c                             random seed = 1072
c              Creation Date:  Thu Jun  4 18:56:29 1998
c Maximum degree = 8 Minimum degree = 0
c p edge 100 239
c cnf created by edge2cnf
p cnf 300 1117
-1 -2 0
-1 -3 0
-2 -3 0
1 2 3 0
-4 -5 0
-4 -6 0
-5 -6 0
4 5 6 0
-7 -8 0
-7 -9 0
-8 -9 0
7 8 9 0
-10 -11 0
-10 -12 0
-11 -12 0
10 11 12 0
-13 -14 0
-13 -15 0
-14 -15 0
13 14 15 0
-16 -17 0
-16 -18 0
-17 -18 0
16 17 18 0
-19 -20 0
-19 -21 0
-20 -21 0
19 20 21 0
-22 -23 0
-22 -24 0
-23 -24 0
22 23 24 0
-25 -26 0
-25 -27 0
-26 -27 0
25 26 27 0
-28 -29 0
-28 -30 0
-29 -30 0
28 29 30 0
-31 -32 0
-31 -33 0
-32 -33 0
31 32 33 0
-34 -35 0
-34 -36 0
-35 -36 0
34 35 36 0
-37 -38 0
-37 -39 0
-38 -39 0
37 38 39 0
-40 -41 0
-40 -42 0
-41 -42 0
40 41 42 0
-43 -44 0
-43 -45 0
-44 -45 0
43 44 45 0
-46 -47 0
-46 -48 0
-47 -48 0
46 47 48 0
-49 -50 0
-49 -51 0
-50 -51 0
49 50 51 0
-52 -53 0
-52 -54 0
-53 -54 0
52 53 54 0
-55 -56 0
-55 -57 0
-56 -57 0
55 56 57 0
-58 -59 0
-58 -60 0
-59 -60 0
58 59 60 0
-61 -62 0
-61 -63 0
-62 -63 0
61 62 63 0
-64 -65 0
-64 -66 0
-65 -66 0
64 65 66 0
-67 -68 0
-67 -69 0
-68 -69 0
67 68 69 0
-70 -71 0
-70 -72 0
-71 -72 0
70 71 72 0
-73 -74 0
-73 -75 0
-74 -75 0
73 74 75 0
-76 -77 0
-76 -78 0
-77 -78 0
76 77 78 0
-79 -80 0
-79 -81 0
-80 -81 0
79 80 81 0
-82 -83 0
-82 -84 0
-83 -84 0
82 83 84 0
-85 -86 0
-85 -87 0
-86 -87 0
85 86 87 0
-88 -89 0
-88 -90 0
-89 -90 0
88 89 90 0
-91 -92 0
-91 -93 0
-92 -93 0
91 92 93 0
-94 -95 0
-94 -96 0
-95 -96 0
94 95 96 0
-97 -98 0
-97 -99 0
-98 -99 0
97 98 99 0
-100 -101 0
-100 -102 0
-101 -102 0
100 101 102 0
-103 -104 0
-103 -105 0
-104 -105 0
103 104 105 0
-106 -107 0
-106 -108 0
-107 -108 0
106 107 108 0
-109 -110 0
-109 -111 0
-110 -111 0
109 110 111 0
-112 -113 0
-112 -114 0
-113 -114 0
112 113 114 0
-115 -116 0
-115 -117 0
-116 -117 0
115 116 117 0
-118 -119 0
-118 -120 0
-119 -120 0
118 119 120 0
-121 -122 0
-121 -123 0
-122 -123 0
121 122 123 0
-124 -125 0
-124 -126 0
-125 -126 0
124 125 126 0
-127 -128 0
-127 -129 0
-128 -129 0
127 128 129 0
-130 -131 0
-130 -132 0
-131 -132 0
130 131 132 0
-133 -134 0
-133 -135 0
-134 -135 0
133 134 135 0
-136 -137 0
-136 -138 0
-137 -138 0
136 137 138 0
-139 -140 0
-139 -141 0
-140 -141 0
139 140 141 0
-142 -143 0
-142 -144 0
-143 -144 0
142 143 144 0
-145 -146 0
-145 -147 0
-146 -147 0
145 146 147 0
-148 -149 0
-148 -150 0
-149 -150 0
148 149 150 0
-151 -152 0
-151 -153 0
-152 -153 0
151 152 153 0
-154 -155 0
-154 -156 0
-155 -156 0
154 155 156 0
-157 -158 0
-157 -159 0
-158 -159 0
157 158 159 0
-160 -161 0
-160 -162 0
-161 -162 0
160 161 162 0
-163 -164 0
-163 -165 0
-164 -165 0
163 164 165 0
-166 -167 0
-166 -168 0
-167 -168 0
166 167 168 0
-169 -170 0
-169 -171 0
-170 -171 0
169 170 171 0
-172 -173 0
-172 -174 0
-173 -174 0
172 173 174 0
-175 -176 0
-175 -177 0
-176 -177 0
175 176 177 0
-178 -179 0
-178 -180 0
-179 -180 0
178 179 180 0
-181 -182 0
-181 -183 0
-182 -183 0
181 182 183 0
-184 -185 0
-184 -186 0
-185 -186 0
184 185 186 0
-187 -188 0
-187 -189 0
-188 -189 0
187 188 189 0
-190 -191 0
-190 -192 0
-191 -192 0
190 191 192 0
-193 -194 0
-193 -195 0
-194 -195 0
193 194 195 0
-196 -197 0
-196 -198 0
-197 -198 0
196 197 198 0
-199 -200 0
-199 -201 0
-200 -201 0
199 200 201 0
-202 -203 0
-202 -204 0
-203 -204 0
202 203 204 0
-205 -206 0
-205 -207 0
-206 -207 0
205 206 207 0
-208 -209 0
-208 -210 0
-209 -210 0
208 209 210 0
-211 -212 0
-211 -213 0
-212 -213 0
211 212 213 0
-214 -215 0
-214 -216 0
-215 -216 0
214 215 216 0
-217 -218 0
-217 -219 0
-218 -219 0
217 218 219 0
-220 -221 0
-220 -222 0
-221 -222 0
220 221 222 0
-223 -224 0
-223 -225 0
-224 -225 0
223 224 225 0
-226 -227 0
-226 -228 0
-227 -228 0
226 227 228 0
-229 -230 0
-229 -231 0
-230 -231 0
229 230 231 0
-232 -233 0
-232 -234 0
-233 -234 0
232 233 234 0
-235 -236 0
-235 -237 0
-236 -237 0
235 236 237 0
-238 -239 0
-238 -240 0
-239 -240 0
238 239 240 0
-241 -242 0
-241 -243 0
-242 -243 0
241 242 243 0
-244 -245 0
-244 -246 0
-245 -246 0
244 245 246 0
-247 -248 0
-247 -249 0
-248 -249 0
247 248 249 0
-250 -251 0
-250 -252 0
-251 -252 0
250 251 252 0
-253 -254 0
-253 -255 0
-254 -255 0
253 254 255 0
-256 -257 0
-256 -258 0
-257 -258 0
256 257 258 0
-259 -260 0
-259 -261 0
-260 -261 0
259 260 261 0
-262 -263 0
-262 -264 0
-263 -264 0
262 263 264 0
-265 -266 0
-265 -267 0
-266 -267 0
265 266 267 0
-268 -269 0
-268 -270 0
-269 -270 0
268 269 270 0
-271 -272 0
-271 -273 0
-272 -273 0
271 272 273 0
-274 -275 0
-274 -276 0
-275 -276 0
274 275 276 0
-277 -278 0
-277 -279 0
-278 -279 0
277 278 279 0
-280 -281 0
-280 -282 0
-281 -282 0
280 281 282 0
-283 -284 0
-283 -285 0
-284 -285 0
283 284 285 0
-286 -287 0
-286 -288 0
-287 -288 0
286 287 288 0
-289 -290 0
-289 -291 0
-290 -291 0
289 290 291 0
-292 -293 0
-292 -294 0
-293 -294 0
292 293 294 0
-295 -296 0
-295 -297 0
-296 -297 0
295 296 297 0
-298 -299 0
-298 -300 0
-299 -300 0
298 299 300 0
-172 -1 0
-173 -2 0
-174 -3 0
-244 -4 0
-245 -5 0
-246 -6 0
-274 -4 0
-275 -5 0
-276 -6 0
-280 -4 0
-281 -5 0
-282 -6 0
-124 -7 0
-125 -8 0
-126 -9 0
-157 -7 0
-158 -8 0
-159 -9 0
-184 -7 0
-185 -8 0
-186 -9 0
-214 -7 0
-215 -8 0
-216 -9 0
-127 -10 0
-128 -11 0
-129 -12 0
-130 -10 0
-131 -11 0
-132 -12 0
-187 -10 0
-188 -11 0
-189 -12 0
-220 -10 0
-221 -11 0
-222 -12 0
-223 -10 0
-224 -11 0
-225 -12 0
-274 -10 0
-275 -11 0
-276 -12 0
-277 -10 0
-278 -11 0
-279 -12 0
-112 -13 0
-113 -14 0
-114 -15 0
-154 -13 0
-155 -14 0
-156 -15 0
-157 -13 0
-158 -14 0
-159 -15 0
-190 -13 0
-191 -14 0
-192 -15 0
-235 -13 0
-236 -14 0
-237 -15 0
-256 -13 0
-257 -14 0
-258 -15 0
-130 -16 0
-131 -17 0
-132 -18 0
-166 -16 0
-167 -17 0
-168 -18 0
-187 -16 0
-188 -17 0
-189 -18 0
-205 -16 0
-206 -17 0
-207 -18 0
-244 -16 0
-245 -17 0
-246 -18 0
-112 -19 0
-113 -20 0
-114 -21 0
-115 -19 0
-116 -20 0
-117 -21 0
-172 -19 0
-173 -20 0
-174 -21 0
-256 -19 0
-257 -20 0
-258 -21 0
-268 -19 0
-269 -20 0
-270 -21 0
-205 -22 0
-206 -23 0
-207 -24 0
-208 -22 0
-209 -23 0
-210 -24 0
-280 -22 0
-281 -23 0
-282 -24 0
-106 -25 0
-107 -26 0
-108 -27 0
-175 -25 0
-176 -26 0
-177 -27 0
-226 -25 0
-227 -26 0
-228 -27 0
-118 -28 0
-119 -29 0
-120 -30 0
-145 -28 0
-146 -29 0
-147 -30 0
-181 -28 0
-182 -29 0
-183 -30 0
-196 -28 0
-197 -29 0
-198 -30 0
-229 -28 0
-230 -29 0
-231 -30 0
-106 -31 0
-107 -32 0
-108 -33 0
-121 -31 0
-122 -32 0
-123 -33 0
-184 -31 0
-185 -32 0
-186 -33 0
-193 -31 0
-194 -32 0
-195 -33 0
-241 -31 0
-242 -32 0
-243 -33 0
-289 -31 0
-290 -32 0
-291 -33 0
-106 -34 0
-107 -35 0
-108 -36 0
-142 -34 0
-143 -35 0
-144 -36 0
-184 -34 0
-185 -35 0
-186 -36 0
-199 -34 0
-200 -35 0
-201 -36 0
-217 -34 0
-218 -35 0
-219 -36 0
-223 -34 0
-224 -35 0
-225 -36 0
-274 -34 0
-275 -35 0
-276 -36 0
-154 -37 0
-155 -38 0
-156 -39 0
-217 -37 0
-218 -38 0
-219 -39 0
-226 -37 0
-227 -38 0
-228 -39 0
-241 -37 0
-242 -38 0
-243 -39 0
-298 -37 0
-299 -38 0
-300 -39 0
-124 -40 0
-125 -41 0
-126 -42 0
-139 -40 0
-140 -41 0
-141 -42 0
-178 -40 0
-179 -41 0
-180 -42 0
-196 -40 0
-197 -41 0
-198 -42 0
-250 -40 0
-251 -41 0
-252 -42 0
-115 -43 0
-116 -44 0
-117 -45 0
-148 -43 0
-149 -44 0
-150 -45 0
-151 -43 0
-152 -44 0
-153 -45 0
-166 -43 0
-167 -44 0
-168 -45 0
-238 -43 0
-239 -44 0
-240 -45 0
-247 -43 0
-248 -44 0
-249 -45 0
-292 -43 0
-293 -44 0
-294 -45 0
-295 -43 0
-296 -44 0
-297 -45 0
-181 -46 0
-182 -47 0
-183 -48 0
-256 -46 0
-257 -47 0
-258 -48 0
-286 -46 0
-287 -47 0
-288 -48 0
-121 -49 0
-122 -50 0
-123 -51 0
-154 -49 0
-155 -50 0
-156 -51 0
-178 -49 0
-179 -50 0
-180 -51 0
-202 -49 0
-203 -50 0
-204 -51 0
-235 -49 0
-236 -50 0
-237 -51 0
-262 -49 0
-263 -50 0
-264 -51 0
-109 -52 0
-110 -53 0
-111 -54 0
-145 -52 0
-146 -53 0
-147 -54 0
-148 -52 0
-149 -53 0
-150 -54 0
-166 -52 0
-167 -53 0
-168 -54 0
-235 -52 0
-236 -53 0
-237 -54 0
-247 -52 0
-248 -53 0
-249 -54 0
-121 -55 0
-122 -56 0
-123 -57 0
-184 -55 0
-185 -56 0
-186 -57 0
-250 -55 0
-251 -56 0
-252 -57 0
-139 -58 0
-140 -59 0
-141 -60 0
-163 -58 0
-164 -59 0
-165 -60 0
-196 -58 0
-197 -59 0
-198 -60 0
-217 -58 0
-218 -59 0
-219 -60 0
-229 -58 0
-230 -59 0
-231 -60 0
-235 -58 0
-236 -59 0
-237 -60 0
-289 -58 0
-290 -59 0
-291 -60 0
-127 -61 0
-128 -62 0
-129 -63 0
-247 -64 0
-248 -65 0
-249 -66 0
-250 -64 0
-251 -65 0
-252 -66 0
-277 -64 0
-278 -65 0
-279 -66 0
-292 -64 0
-293 -65 0
-294 -66 0
-109 -67 0
-110 -68 0
-111 -69 0
-214 -67 0
-215 -68 0
-216 -69 0
-283 -67 0
-284 -68 0
-285 -69 0
-208 -70 0
-209 -71 0
-210 -72 0
-238 -70 0
-239 -71 0
-240 -72 0
-298 -70 0
-299 -71 0
-300 -72 0
-130 -73 0
-131 -74 0
-132 -75 0
-190 -73 0
-191 -74 0
-192 -75 0
-265 -73 0
-266 -74 0
-267 -75 0
-115 -76 0
-116 -77 0
-117 -78 0
-142 -76 0
-143 -77 0
-144 -78 0
-157 -76 0
-158 -77 0
-159 -78 0
-238 -76 0
-239 -77 0
-240 -78 0
-154 -79 0
-155 -80 0
-156 -81 0
-178 -79 0
-179 -80 0
-180 -81 0
-271 -79 0
-272 -80 0
-273 -81 0
-136 -82 0
-137 -83 0
-138 -84 0
-202 -82 0
-203 -83 0
-204 -84 0
-223 -82 0
-224 -83 0
-225 -84 0
-283 -82 0
-284 -83 0
-285 -84 0
-103 -85 0
-104 -86 0
-105 -87 0
-106 -85 0
-107 -86 0
-108 -87 0
-121 -85 0
-122 -86 0
-123 -87 0
-157 -85 0
-158 -86 0
-159 -87 0
-274 -85 0
-275 -86 0
-276 -87 0
-289 -85 0
-290 -86 0
-291 -87 0
-112 -88 0
-113 -89 0
-114 -90 0
-115 -88 0
-116 -89 0
-117 -90 0
-145 -88 0
-146 -89 0
-147 -90 0
-190 -88 0
-191 -89 0
-192 -90 0
-220 -88 0
-221 -89 0
-222 -90 0
-232 -88 0
-233 -89 0
-234 -90 0
-244 -88 0
-245 -89 0
-246 -90 0
-262 -88 0
-263 -89 0
-264 -90 0
-160 -91 0
-161 -92 0
-162 -93 0
-166 -91 0
-167 -92 0
-168 -93 0
-178 -91 0
-179 -92 0
-180 -93 0
-181 -91 0
-182 -92 0
-183 -93 0
-205 -91 0
-206 -92 0
-207 -93 0
-226 -91 0
-227 -92 0
-228 -93 0
-241 -91 0
-242 -92 0
-243 -93 0
-268 -91 0
-269 -92 0
-270 -93 0
-112 -94 0
-113 -95 0
-114 -96 0
-145 -94 0
-146 -95 0
-147 -96 0
-160 -94 0
-161 -95 0
-162 -96 0
-196 -94 0
-197 -95 0
-198 -96 0
-241 -94 0
-242 -95 0
-243 -96 0
-250 -94 0
-251 -95 0
-252 -96 0
-262 -94 0
-263 -95 0
-264 -96 0
-280 -94 0
-281 -95 0
-282 -96 0
-211 -97 0
-212 -98 0
-213 -99 0
-247 -97 0
-248 -98 0
-249 -99 0
-256 -97 0
-257 -98 0
-258 -99 0
-280 -97 0
-281 -98 0
-282 -99 0
-163 -100 0
-164 -101 0
-165 -102 0
-265 -100 0
-266 -101 0
-267 -102 0
-286 -100 0
-287 -101 0
-288 -102 0
-289 -100 0
-290 -101 0
-291 -102 0
-298 -103 0
-299 -104 0
-300 -105 0
-232 -106 0
-233 -107 0
-234 -108 0
-283 -106 0
-284 -107 0
-285 -108 0
-292 -106 0
-293 -107 0
-294 -108 0
-295 -106 0
-296 -107 0
-297 -108 0
-292 -109 0
-293 -110 0
-294 -111 0
-295 -109 0
-296 -110 0
-297 -111 0
-298 -109 0
-299 -110 0
-300 -111 0
-208 -112 0
-209 -113 0
-210 -114 0
-235 -112 0
-236 -113 0
-237 -114 0
-244 -112 0
-245 -113 0
-246 -114 0
-259 -112 0
-260 -113 0
-261 -114 0
-217 -115 0
-218 -116 0
-219 -117 0
-238 -115 0
-239 -116 0
-240 -117 0
-262 -115 0
-263 -116 0
-264 -117 0
-283 -118 0
-284 -119 0
-285 -120 0
-298 -118 0
-299 -119 0
-300 -120 0
-217 -121 0
-218 -122 0
-219 -123 0
-223 -121 0
-224 -122 0
-225 -123 0
-247 -121 0
-248 -122 0
-249 -123 0
-286 -121 0
-287 -122 0
-288 -123 0
-244 -124 0
-245 -125 0
-246 -126 0
-256 -124 0
-257 -125 0
-258 -126 0
-289 -124 0
-290 -125 0
-291 -126 0
-232 -127 0
-233 -128 0
-234 -129 0
-238 -127 0
-239 -128 0
-240 -129 0
-271 -127 0
-272 -128 0
-273 -129 0
-286 -127 0
-287 -128 0
-288 -129 0
-226 -130 0
-227 -131 0
-228 -132 0
-244 -130 0
-245 -131 0
-246 -132 0
-274 -130 0
-275 -131 0
-276 -132 0
-283 -130 0
-284 -131 0
-285 -132 0
-211 -133 0
-212 -134 0
-213 -135 0
-214 -136 0
-215 -137 0
-216 -138 0
-262 -136 0
-263 -137 0
-264 -138 0
-268 -136 0
-269 -137 0
-270 -138 0
-259 -142 0
-260 -143 0
-261 -144 0
-262 -142 0
-263 -143 0
-264 -144 0
-208 -145 0
-209 -146 0
-210 -147 0
-235 -145 0
-236 -146 0
-237 -147 0
-238 -148 0
-239 -149 0
-240 -150 0
-235 -151 0
-236 -152 0
-237 -153 0
-238 -151 0
-239 -152 0
-240 -153 0
-268 -151 0
-269 -152 0
-270 -153 0
-289 -151 0
-290 -152 0
-291 -153 0
-217 -154 0
-218 -155 0
-219 -156 0
-268 -154 0
-269 -155 0
-270 -156 0
-202 -157 0
-203 -158 0
-204 -159 0
-211 -157 0
-212 -158 0
-213 -159 0
-256 -157 0
-257 -158 0
-258 -159 0
-211 -160 0
-212 -161 0
-213 -162 0
-229 -160 0
-230 -161 0
-231 -162 0
-262 -160 0
-263 -161 0
-264 -162 0
-289 -160 0
-290 -161 0
-291 -162 0
-208 -166 0
-209 -167 0
-210 -168 0
-271 -166 0
-272 -167 0
-273 -168 0
-211 -169 0
-212 -170 0
-213 -171 0
-220 -169 0
-221 -170 0
-222 -171 0
-223 -172 0
-224 -173 0
-225 -174 0
-277 -172 0
-278 -173 0
-279 -174 0
-289 -172 0
-290 -173 0
-291 -174 0
-256 -175 0
-257 -176 0
-258 -177 0
-286 -175 0
-287 -176 0
-288 -177 0
-241 -178 0
-242 -179 0
-243 -180 0
-229 -181 0
-230 -182 0
-231 -183 0
-235 -181 0
-236 -182 0
-237 -183 0
-268 -181 0
-269 -182 0
-270 -183 0
-226 -184 0
-227 -185 0
-228 -186 0
-256 -187 0
-257 -188 0
-258 -189 0
-277 -187 0
-278 -188 0
-279 -189 0
-295 -187 0
-296 -188 0
-297 -189 0
-241 -190 0
-242 -191 0
-243 -192 0
-259 -190 0
-260 -191 0
-261 -192 0
-265 -193 0
-266 -194 0
-267 -195 0
-229 -196 0
-230 -197 0
-231 -198 0
-232 -199 0
-233 -200 0
-234 -201 0
-277 -199 0
-278 -200 0
-279 -201 0
-280 -199 0
-281 -200 0
-282 -201 0
